159
1606
118
0 1
0 7
0 10
0 73
0 80
0 92
1 7
1 10
1 13
1 14
1 18
1 20
1 23
1 37
1 39
1 45
1 48
1 50
1 52
1 55
1 58
1 71
1 73
1 78
1 80
1 84
1 92
1 97
1 117
1 129
2 6
2 9
2 19
2 21
2 24
2 25
2 26
2 27
2 29
2 30
2 31
2 43
2 70
2 81
2 83
3 4
3 5
3 8
3 15
3 16
3 17
3 28
3 32
3 36
3 60
3 82
3 84
3 85
3 88
3 105
3 131
3 142
3 155
4 5
4 8
4 15
4 16
4 17
4 28
4 32
4 36
4 60
5 8
5 15
5 16
5 17
5 28
5 32
5 36
5 60
5 74
5 76
5 77
5 86
5 87
5 89
5 90
6 9
6 18
6 19
6 21
6 24
6 25
6 26
6 27
6 29
6 30
6 31
6 39
6 43
6 50
6 62
6 63
6 68
6 70
6 81
6 83
6 103
6 105
6 108
6 109
6 111
6 112
6 144
6 157
7 10
7 13
7 14
7 18
7 20
7 23
7 38
7 40
7 41
7 42
7 44
7 51
7 53
7 54
7 58
7 73
7 75
7 80
7 88
7 92
7 118
7 119
7 120
7 122
8 15
8 16
8 17
8 28
8 32
8 36
8 60
8 63
8 74
8 76
8 77
8 86
8 87
8 89
8 90
8 95
8 97
8 100
8 103
8 111
8 140
9 19
9 21
9 24
9 25
9 26
9 27
9 29
9 30
9 31
9 43
9 52
9 55
9 57
9 64
9 65
9 66
9 67
9 70
9 78
9 81
9 83
9 110
9 113
10 13
10 14
10 18
10 20
10 23
10 38
10 40
10 41
10 42
10 44
10 51
10 53
10 54
10 58
10 73
10 75
10 80
10 88
10 92
10 115
10 121
10 123
11 12
11 19
11 21
11 28
11 32
11 35
11 43
11 45
11 56
11 60
11 127
11 149
12 19
12 21
12 35
12 43
12 127
13 14
13 18
13 20
13 23
13 58
13 73
14 18
14 20
14 23
14 37
14 39
14 58
14 73
14 97
14 117
14 129
15 16
15 17
15 28
15 32
15 33
15 36
15 46
15 60
15 82
15 84
15 85
15 88
15 105
15 114
15 125
15 131
15 142
15 155
16 17
16 28
16 32
16 33
16 36
16 46
16 60
16 114
16 125
17 28
17 32
17 33
17 36
17 46
17 60
17 74
17 76
17 77
17 86
17 87
17 89
17 90
17 114
17 125
18 19
18 20
18 23
18 27
18 29
18 37
18 39
18 45
18 48
18 50
18 52
18 55
18 58
18 62
18 63
18 68
18 71
18 73
18 78
18 84
18 97
18 117
18 129
18 144
18 157
19 21
19 24
19 25
19 26
19 27
19 29
19 30
19 31
19 35
19 39
19 43
19 50
19 62
19 63
19 68
19 83
19 127
19 144
19 157
20 23
20 38
20 40
20 41
20 42
20 44
20 51
20 53
20 54
20 58
20 73
20 75
20 88
20 115
20 121
20 123
21 24
21 25
21 26
21 27
21 29
21 30
21 31
21 35
21 43
21 52
21 55
21 57
21 64
21 65
21 66
21 67
21 78
21 83
21 110
21 113
21 127
22 23
22 58
22 91
22 136
23 58
23 73
23 91
23 136
24 25
24 26
24 27
24 29
24 30
24 31
24 43
24 59
24 61
24 83
24 94
24 96
24 104
24 106
24 107
24 138
24 141
24 152
24 154
25 26
25 27
25 29
25 30
25 31
25 43
25 83
26 27
26 29
26 30
26 31
26 37
26 43
26 49
26 59
26 61
26 83
26 94
26 96
26 104
26 106
26 107
26 138
26 141
26 152
26 154
27 29
27 30
27 31
27 39
27 43
27 50
27 62
27 63
27 68
27 83
27 103
27 105
27 108
27 109
27 111
27 112
27 144
27 157
28 32
28 36
28 45
28 56
28 60
28 74
28 76
28 77
28 86
28 87
28 89
28 90
28 149
29 30
29 31
29 39
29 43
29 50
29 62
29 63
29 68
29 83
29 144
29 157
30 31
30 43
30 52
30 53
30 55
30 57
30 64
30 65
30 66
30 67
30 78
30 83
30 110
30 113
30 146
30 158
31 42
31 43
31 52
31 55
31 57
31 64
31 65
31 66
31 67
31 78
31 83
31 110
31 113
31 121
31 134
31 148
31 153
31 155
31 156
32 36
32 45
32 56
32 60
32 66
32 68
32 74
32 76
32 77
32 86
32 87
32 89
32 90
32 96
32 101
32 102
32 112
32 122
32 149
33 34
33 35
33 36
33 43
33 46
33 114
33 125
33 127
34 35
34 36
34 43
34 46
34 114
34 125
34 127
35 36
35 43
35 46
35 114
35 125
35 127
36 43
36 46
36 60
36 114
36 125
36 127
37 39
37 49
37 61
37 69
37 70
37 73
37 74
37 76
37 77
37 97
37 107
37 117
37 129
37 141
37 154
38 40
38 41
38 42
38 44
38 51
38 53
38 54
38 66
38 75
38 88
38 118
38 119
38 120
38 122
38 124
38 131
38 132
38 158
39 45
39 48
39 50
39 52
39 55
39 62
39 63
39 68
39 71
39 78
39 84
39 97
39 103
39 105
39 108
39 109
39 111
39 112
39 117
39 129
39 144
39 157
40 41
40 42
40 44
40 51
40 53
40 54
40 75
40 88
41 42
41 44
41 51
41 53
41 54
41 75
41 88
41 118
41 119
41 120
41 122
42 44
42 51
42 53
42 54
42 67
42 75
42 88
42 113
42 115
42 121
42 123
42 134
42 148
42 153
42 155
42 156
43 46
43 52
43 55
43 57
43 64
43 65
43 66
43 67
43 78
43 83
43 110
43 113
43 114
43 125
43 127
44 51
44 53
44 54
44 75
44 88
44 115
44 121
44 123
45 48
45 50
45 52
45 55
45 56
45 58
45 60
45 71
45 78
45 84
45 91
45 93
45 115
45 126
45 136
45 149
45 150
46 47
46 51
46 53
46 54
46 72
46 75
46 88
46 94
46 104
46 114
46 125
46 127
46 138
46 152
47 51
47 53
47 54
47 72
47 75
47 88
47 94
47 104
47 138
47 152
48 50
48 52
48 55
48 71
48 78
48 84
49 61
49 107
49 141
49 154
50 52
50 55
50 62
50 63
50 68
50 71
50 78
50 84
50 144
50 157
51 53
51 54
51 72
51 75
51 88
51 94
51 104
51 138
51 152
52 53
52 55
52 57
52 64
52 65
52 66
52 67
52 71
52 78
52 84
52 110
52 113
52 146
52 158
53 54
53 65
53 66
53 72
53 75
53 88
53 94
53 104
53 115
53 121
53 123
53 138
53 146
53 152
53 158
54 72
54 75
54 88
54 94
54 104
54 115
54 121
54 123
54 138
54 152
55 57
55 64
55 65
55 66
55 67
55 71
55 78
55 84
55 110
55 113
56 58
56 60
56 71
56 91
56 93
56 115
56 126
56 136
56 149
56 150
57 64
57 65
57 66
57 67
57 78
57 89
57 95
57 97
57 101
57 103
57 110
57 113
57 114
57 116
57 117
57 125
57 127
57 128
57 129
57 137
57 145
57 151
58 60
58 71
58 73
58 91
58 93
58 115
58 126
58 136
58 149
58 150
59 61
59 94
59 96
59 104
59 106
59 107
59 138
59 141
59 152
59 154
60 71
60 82
60 84
60 85
60 88
60 91
60 93
60 105
60 115
60 126
60 131
60 136
60 142
60 149
60 150
60 155
61 94
61 96
61 104
61 106
61 107
61 138
61 141
61 152
61 154
62 63
62 68
62 144
62 157
63 68
63 76
63 77
63 90
63 95
63 97
63 100
63 103
63 105
63 108
63 109
63 111
63 112
63 125
63 127
63 128
63 129
63 133
63 140
63 144
63 157
64 65
64 66
64 67
64 78
64 89
64 101
64 110
64 113
64 137
64 145
64 151
65 66
65 67
65 78
65 110
65 113
65 146
65 158
66 67
66 68
66 78
66 89
66 96
66 101
66 102
66 110
66 112
66 113
66 118
66 119
66 122
66 124
66 131
66 132
66 146
66 158
67 78
67 110
67 113
67 121
67 134
67 148
67 153
67 155
67 156
68 89
68 96
68 101
68 102
68 103
68 105
68 108
68 109
68 111
68 112
68 122
68 136
68 137
68 138
68 139
68 141
68 144
68 145
68 146
68 147
68 157
69 70
69 73
69 74
69 76
69 77
69 79
69 80
69 81
69 83
69 92
69 124
69 135
69 148
70 73
70 74
70 76
70 77
70 79
70 80
70 81
70 83
70 92
70 124
70 135
70 148
71 72
71 75
71 78
71 82
71 84
71 88
71 91
71 93
71 105
71 115
71 126
71 136
71 149
71 150
72 75
72 78
72 82
72 84
72 88
72 94
72 104
72 105
72 138
72 152
73 74
73 76
73 77
73 79
73 80
73 81
73 83
73 92
73 124
73 135
73 148
74 76
74 77
74 86
74 87
74 89
74 90
75 78
75 82
75 84
75 88
75 94
75 104
75 105
75 138
75 152
76 77
76 86
76 87
76 89
76 90
76 95
76 97
76 100
76 103
76 111
76 140
77 86
77 87
77 89
77 90
77 95
77 97
77 100
77 103
77 111
77 126
77 130
77 134
77 140
78 82
78 84
78 88
78 105
78 110
78 113
79 80
79 81
79 83
79 92
79 124
79 135
79 148
80 81
80 83
80 92
80 124
80 135
80 148
81 83
81 92
81 124
81 135
81 148
82 84
82 85
82 88
82 105
82 131
82 142
82 155
83 92
83 124
83 135
83 148
84 85
84 88
84 105
84 131
84 142
84 155
85 88
85 105
85 131
85 142
85 155
86 87
86 89
86 90
87 89
87 90
87 91
87 93
87 94
87 99
87 118
87 143
87 153
87 158
88 94
88 104
88 105
88 131
88 138
88 142
88 152
88 155
89 90
89 96
89 101
89 102
89 110
89 112
89 122
89 136
89 137
89 138
89 139
89 141
89 144
89 145
89 146
89 147
89 151
90 95
90 97
90 100
90 103
90 111
90 140
91 93
91 94
91 99
91 104
91 106
91 107
91 110
91 113
91 115
91 118
91 126
91 136
91 143
91 149
91 150
91 153
91 158
92 98
92 105
92 108
92 119
92 124
92 131
92 135
92 142
92 148
92 155
92 156
93 94
93 99
93 104
93 106
93 107
93 110
93 113
93 115
93 118
93 126
93 136
93 143
93 149
93 150
93 153
93 158
94 96
94 99
94 104
94 106
94 107
94 110
94 113
94 118
94 138
94 141
94 143
94 152
94 153
94 154
94 158
95 97
95 100
95 103
95 111
95 114
95 116
95 117
95 125
95 127
95 128
95 129
95 133
95 137
95 140
95 151
96 101
96 102
96 104
96 106
96 107
96 112
96 115
96 122
96 126
96 130
96 136
96 137
96 138
96 139
96 140
96 141
96 144
96 145
96 146
96 147
96 149
96 150
96 152
96 154
96 157
97 100
97 103
97 111
97 114
97 116
97 117
97 125
97 127
97 128
97 129
97 133
97 137
97 140
97 151
98 105
98 108
98 119
98 124
98 131
98 135
98 142
98 148
98 155
98 156
99 118
99 143
99 153
99 158
100 103
100 111
100 125
100 127
100 128
100 129
100 133
100 140
101 102
101 110
101 112
101 122
101 136
101 137
101 138
101 139
101 141
101 144
101 145
101 146
101 147
101 151
102 112
102 122
103 105
103 108
103 109
103 111
103 112
103 114
103 116
103 117
103 125
103 127
103 128
103 129
103 133
103 137
103 140
103 151
104 106
104 107
104 110
104 113
104 118
104 138
104 141
104 152
104 153
104 154
105 108
105 109
105 111
105 112
105 119
105 124
105 131
105 135
105 142
105 148
105 155
105 156
106 107
106 110
106 113
106 118
106 138
106 141
106 152
106 153
106 154
107 110
107 113
107 118
107 138
107 141
107 152
107 153
107 154
108 109
108 111
108 112
108 119
108 124
108 131
108 135
108 142
108 148
108 155
108 156
109 111
109 112
110 113
110 118
110 137
110 145
110 151
110 153
111 112
111 140
112 122
113 118
113 121
113 134
113 148
113 153
113 155
113 156
114 116
114 117
114 125
114 127
114 128
114 129
114 137
114 151
115 121
115 123
115 126
115 130
115 136
115 138
115 139
115 140
115 141
115 144
115 149
115 150
115 152
115 154
115 157
116 117
116 125
116 127
116 128
116 129
116 137
116 151
117 125
117 127
117 128
117 129
117 137
117 151
118 119
118 120
118 122
118 124
118 131
118 132
118 143
118 153
118 158
119 120
119 122
119 124
119 131
119 132
119 135
119 142
119 148
119 155
119 156
119 158
120 122
121 123
121 134
121 148
121 153
121 155
121 156
122 124
122 131
122 132
122 158
124 131
124 132
124 135
124 142
124 148
124 155
124 156
124 158
125 127
125 128
125 129
125 133
125 137
125 151
126 130
126 134
126 136
126 138
126 139
126 140
126 141
126 144
126 149
126 150
126 152
126 154
126 157
127 128
127 129
127 133
127 137
127 151
128 129
128 133
128 137
128 151
129 133
129 137
129 151
130 134
130 136
130 138
130 139
130 140
130 141
130 144
130 149
130 150
130 152
130 154
130 157
131 132
131 135
131 142
131 148
131 155
131 156
131 158
132 158
134 140
134 148
134 153
134 155
134 156
135 140
135 142
135 143
135 148
135 153
135 155
135 156
136 137
136 138
136 139
136 140
136 141
136 144
136 145
136 146
136 147
136 149
136 150
136 152
136 154
136 157
137 138
137 139
137 141
137 144
137 145
137 146
137 147
137 151
138 139
138 140
138 141
138 144
138 145
138 146
138 147
138 149
138 150
138 152
138 154
138 157
139 140
139 141
139 144
139 145
139 146
139 147
139 149
139 150
139 152
139 154
139 157
140 141
140 142
140 143
140 144
140 148
140 149
140 150
140 152
140 153
140 154
140 155
140 156
140 157
141 144
141 145
141 146
141 147
141 149
141 150
141 152
141 154
141 157
142 143
142 148
142 153
142 155
142 156
143 148
143 153
143 155
143 156
143 158
144 145
144 146
144 147
144 149
144 150
144 152
144 154
144 157
145 146
145 147
145 151
146 147
146 158
148 153
148 155
148 156
149 150
149 152
149 154
149 157
150 152
150 154
150 157
152 154
152 157
153 155
153 156
153 158
154 157
155 156
0
1 2
3
4
5 6
7 8
9 10
11
12
13
14
15
16
17
18 19
20 21
22
23
24
25
26
27 28
29
30
31 32
33
34
35
36 37
38 39
40
41
42
43 44
45 46
47
48
49
50
51
52 53
54 55
56
57 58
59
60 61
62
63 64
65
66 67
68
69
70 71
72 73
74
75
76
77 78
79
80
81
82
83 84
85
86
87
88 89
90
91 92
93
94 95
96 97
98
99
100 101
102
103 104
105 106
107
108
109
110
111
112 113
114
115
116
117
118
119
120
121 122
123
124 125
126 127
128
129
130
131
132
133
134
135
136
137 138
139 140
141 142
143 144
145
146
147
148 149
150
151 152
153
154 155
156
157 158
